projected/problems_b25_r0_d7_m100_s666/_DIMACS/b25_d7_r0_s666_040.cnf
p cnf 228 353 25
c p show 1 2 3 4 5 6 7 8 9 10 11 12 13 14 15 16 17 18 19 20 21 22 23 24 25
-168 1 0
-168 12 0
-169 10 0
-169 -24 0
-170 24 0
-170 -10 0
-171 170 169 0
-172 171 168 0
-173 2 8 0
-174 22 0
-174 18 0
-175 174 0
-175 173 0
-176 175 0
-176 172 0
-177 3 14 0
-178 1 -23 0
-179 178 0
-179 177 0
-180 -11 0
-180 19 0
-181 -19 0
-181 11 0
-182 181 180 0
-183 8 1 0
-184 -1 -8 0
-185 184 0
-185 183 0
-186 185 182 0
-187 186 0
-187 179 0
-188 187 176 0
-189 17 20 0
-190 -12 -20 0
-191 190 189 0
-192 12 0
-192 20 0
-193 -17 0
-193 -20 0
-195 193 192 0
-196 195 0
-196 191 0
-197 2 0
-197 -8 0
-198 3 8 0
-199 198 197 0
-200 199 0
-200 196 0
-201 -21 12 0
-202 -8 5 0
-203 202 0
-203 201 0
-204 -12 11 0
-206 204 190 0
-207 206 203 0
-208 207 0
-208 200 0
-209 208 188 0
-210 -22 0
-210 17 0
-212 7 5 0
-213 212 210 0
-214 -8 -1 0
-215 -7 0
-215 20 0
-216 215 0
-216 214 0
-218 216 0
-218 213 0
-219 -13 18 0
-220 -2 12 0
-221 220 219 0
-222 3 -9 0
-224 9 -3 0
-225 224 0
-225 222 0
-226 25 0
-226 -17 0
-227 226 225 0
-228 227 0
-228 221 0
-26 228 218 0
-27 -16 0
-27 -19 0
-28 -23 12 0
-194 28 0
-194 27 0
-29 16 0
-29 4 0
-205 -11 0
-205 -9 0
-211 205 0
-211 29 0
-217 211 194 0
-223 -16 -4 0
-30 11 9 0
-31 30 223 0
-32 16 19 0
-33 23 0
-33 -12 0
-34 33 32 0
-35 34 31 0
-36 35 0
-36 217 0
-37 -1 0
-37 6 0
-38 18 20 0
-39 38 37 0
-40 22 0
-40 -13 0
-41 20 0
-41 -3 0
-42 41 0
-42 40 0
-43 42 39 0
-44 43 36 0
-45 44 0
-45 26 0
-46 45 209 0
-47 13 12 0
-48 -10 -22 0
-49 48 0
-49 47 0
-50 13 0
-50 -5 0
-51 -2 -19 0
-52 51 50 0
-53 2 0
-53 19 0
-54 -13 5 0
-55 54 53 0
-56 55 0
-56 52 0
-57 56 0
-57 49 0
-58 8 21 0
-59 25 3 0
-60 59 58 0
-61 20 0
-61 5 0
-62 -5 0
-62 -20 0
-63 62 61 0
-64 23 17 0
-65 64 0
-65 63 0
-66 65 0
-66 60 0
-67 66 0
-67 57 0
-68 -20 -16 0
-69 24 11 0
-70 69 0
-70 68 0
-71 -13 0
-71 -11 0
-72 -18 0
-72 12 0
-73 -12 0
-73 18 0
-74 73 72 0
-75 74 0
-75 71 0
-76 75 0
-76 70 0
-77 -17 0
-77 -24 0
-78 21 -14 0
-79 78 0
-79 77 0
-80 -15 6 0
-81 -6 15 0
-82 81 0
-82 80 0
-83 -24 0
-83 -23 0
-84 83 0
-84 82 0
-85 24 23 0
-86 15 0
-86 -6 0
-87 6 0
-87 -15 0
-88 87 86 0
-89 88 0
-89 85 0
-90 89 84 0
-91 90 0
-91 79 0
-92 91 0
-92 76 0
-93 92 67 0
-94 18 -20 0
-95 24 0
-95 -15 0
-96 15 0
-96 -24 0
-97 96 95 0
-98 97 94 0
-99 -24 15 0
-100 -15 24 0
-101 100 0
-101 99 0
-102 -18 0
-102 20 0
-103 102 101 0
-104 103 0
-104 98 0
-105 19 0
-105 25 0
-106 3 0
-106 -10 0
-107 106 0
-107 105 0
-108 107 104 0
-109 15 0
-109 -4 0
-110 4 0
-110 -15 0
-111 110 109 0
-112 -3 -8 0
-113 112 111 0
-114 15 0
-114 -22 0
-115 8 0
-115 19 0
-116 115 114 0
-117 116 0
-117 113 0
-118 -15 22 0
-119 -8 -19 0
-120 119 0
-120 118 0
-121 -15 4 0
-122 -4 15 0
-123 122 0
-123 121 0
-124 3 0
-124 8 0
-125 124 0
-125 123 0
-126 125 0
-126 120 0
-127 126 117 0
-128 127 108 0
-129 -17 0
-129 13 0
-130 1 0
-130 15 0
-131 130 129 0
-132 -1 -15 0
-133 17 -13 0
-134 133 132 0
-135 134 0
-135 131 0
-136 -15 14 0
-137 12 0
-137 -13 0
-138 137 136 0
-139 -12 13 0
-140 15 0
-140 -14 0
-141 140 139 0
-142 141 0
-142 138 0
-143 142 135 0
-144 -24 0
-145 -21 0
-145 -14 0
-146 145 144 0
-147 25 0
-147 3 0
-148 21 14 0
-149 148 147 0
-150 149 146 0
-151 150 0
-151 143 0
-152 24 0
-153 148 0
-153 152 0
-154 -25 -3 0
-155 145 0
-155 154 0
-156 155 0
-156 153 0
-157 132 0
-157 133 0
-158 129 0
-158 130 0
-159 158 157 0
-160 139 0
-160 140 0
-161 136 0
-161 137 0
-162 161 160 0
-163 162 0
-163 159 0
-164 163 0
-164 156 0
-165 164 151 0
-166 165 128 0
-167 166 93 0
167 0
46 0
-192 -190 0
-189 -193 0
-223 -29 0
-29 -223 0
-205 -30 0
-211 -31 0
-31 -211 0
-32 -27 0
-33 -28 0
-34 -194 0
-194 -34 0
-51 -53 0
-53 -51 0
-54 -50 0
-50 -54 0
-85 -83 0
-83 -85 0
-82 -88 0
-88 -82 0
-101 -97 0
-102 -94 0
-94 -102 0
-114 -118 0
-115 -119 0
-116 -120 0
-123 -111 0
-111 -123 0
-112 -124 0
-113 -125 0
-125 -113 0
-144 -152 0
-152 -144 0
-145 -148 0
-148 -145 0
-153 -146 0
-146 -153 0
-154 -147 0
-155 -149 0
-149 -155 0
-150 -156 0
-132 -130 0
-129 -133 0
-135 -159 0
-137 -139 0
-139 -137 0
-136 -140 0
-142 -162 0
-143 -163 0
-163 -143 0
