projected/problems_b25_r0_d7_m100_s666/b25_d7_r0_s666_040.smt2
(set-logic QF_UF)
(declare-fun A0 () Bool)
(declare-fun A1 () Bool)
(declare-fun A2 () Bool)
(declare-fun A3 () Bool)
(declare-fun A4 () Bool)
(declare-fun A5 () Bool)
(declare-fun A6 () Bool)
(declare-fun A7 () Bool)
(declare-fun A8 () Bool)
(declare-fun A9 () Bool)
(declare-fun A10 () Bool)
(declare-fun A11 () Bool)
(declare-fun A12 () Bool)
(declare-fun A13 () Bool)
(declare-fun A14 () Bool)
(declare-fun A15 () Bool)
(declare-fun A16 () Bool)
(declare-fun A17 () Bool)
(declare-fun A18 () Bool)
(declare-fun A19 () Bool)
(declare-fun A20 () Bool)
(declare-fun A21 () Bool)
(declare-fun A22 () Bool)
(declare-fun A23 () Bool)
(declare-fun A24 () Bool)
(assert (let ((.def_0 (not A11))) (let ((.def_1 (not A0))) (let ((.def_2 (or .def_1 .def_0))) (let ((.def_3 (not .def_2))) (let ((.def_4 (= A23 A9))) (let ((.def_5 (not .def_4))) (let ((.def_6 (or .def_5 .def_3))) (let ((.def_7 (not .def_6))) (let ((.def_8 (not A7))) (let ((.def_9 (not A1))) (let ((.def_10 (and .def_9 .def_8))) (let ((.def_11 (not .def_10))) (let ((.def_12 (and A21 A17))) (let ((.def_13 (and .def_12 .def_11))) (let ((.def_14 (not .def_13))) (let ((.def_15 (or .def_14 .def_7))) (let ((.def_16 (not .def_15))) (let ((.def_17 (or A2 A13))) (let ((.def_18 (and .def_1 A22))) (let ((.def_19 (not .def_18))) (let ((.def_20 (and .def_19 .def_17))) (let ((.def_21 (not A10))) (let ((.def_22 (not A18))) (let ((.def_23 (= .def_22 .def_21))) (let ((.def_24 (not .def_23))) (let ((.def_25 (= A0 .def_8))) (let ((.def_26 (or .def_25 .def_24))) (let ((.def_27 (and .def_26 .def_20))) (let ((.def_28 (or .def_27 .def_16))) (let ((.def_29 (not .def_28))) (let ((.def_30 (and A11 A19))) (let ((.def_31 (or A16 A19))) (let ((.def_32 (= .def_31 .def_30))) (let ((.def_33 (or .def_9 A7))) (let ((.def_34 (not .def_33))) (let ((.def_35 (or A2 A7))) (let ((.def_36 (or .def_35 .def_34))) (let ((.def_37 (and .def_36 .def_32))) (let ((.def_38 (and A20 .def_0))) (let ((.def_39 (not A4))) (let ((.def_40 (and A7 .def_39))) (let ((.def_41 (or .def_40 .def_38))) (let ((.def_42 (or .def_0 A10))) (let ((.def_43 (not .def_42))) (let ((.def_44 (and .def_43 .def_30))) (let ((.def_45 (and .def_44 .def_41))) (let ((.def_46 (not .def_45))) (let ((.def_47 (and .def_46 .def_37))) (let ((.def_48 (not .def_47))) (let ((.def_49 (and .def_48 .def_29))) (let ((.def_50 (not .def_49))) (let ((.def_51 (not A21))) (let ((.def_52 (and .def_51 A16))) (let ((.def_53 (not A6))) (let ((.def_54 (and .def_53 .def_39))) (let ((.def_55 (not .def_54))) (let ((.def_56 (or .def_55 .def_52))) (let ((.def_57 (not .def_56))) (let ((.def_58 (or .def_8 .def_1))) (let ((.def_59 (and .def_53 A19))) (let ((.def_60 (and .def_59 .def_58))) (let ((.def_61 (not .def_60))) (let ((.def_62 (or .def_61 .def_57))) (let ((.def_63 (not A12))) (let ((.def_64 (or .def_63 A17))) (let ((.def_65 (not .def_64))) (let ((.def_66 (and A1 .def_0))) (let ((.def_67 (and .def_66 .def_65))) (let ((.def_68 (not .def_67))) (let ((.def_69 (not A2))) (let ((.def_70 (not A8))) (let ((.def_71 (= .def_70 .def_69))) (let ((.def_72 (not .def_71))) (let ((.def_73 (not A16))) (let ((.def_74 (and A24 .def_73))) (let ((.def_75 (not .def_74))) (let ((.def_76 (and .def_75 .def_72))) (let ((.def_77 (not .def_76))) (let ((.def_78 (and .def_77 .def_68))) (let ((.def_79 (not .def_78))) (let ((.def_80 (and .def_79 .def_62))) (let ((.def_81 (not A3))) (let ((.def_82 (not A15))) (let ((.def_83 (or .def_82 .def_81))) (let ((.def_84 (not .def_83))) (let ((.def_85 (and .def_21 .def_70))) (let ((.def_86 (and .def_85 .def_84))) (let ((.def_87 (not .def_86))) (let ((.def_88 (or A15 A18))) (let ((.def_89 (and A22 .def_0))) (let ((.def_90 (or .def_89 .def_88))) (let ((.def_91 (not .def_90))) (let ((.def_92 (= .def_91 .def_87))) (let ((.def_93 (and .def_1 A5))) (let ((.def_94 (not .def_93))) (let ((.def_95 (or A17 A19))) (let ((.def_96 (not .def_95))) (let ((.def_97 (and .def_96 .def_94))) (let ((.def_98 (or .def_51 A12))) (let ((.def_99 (not .def_98))) (let ((.def_100 (not A19))) (let ((.def_101 (or .def_100 A2))) (let ((.def_102 (not .def_101))) (let ((.def_103 (and .def_102 .def_99))) (let ((.def_104 (not .def_103))) (let ((.def_105 (and .def_104 .def_97))) (let ((.def_106 (not .def_105))) (let ((.def_107 (or .def_106 .def_92))) (let ((.def_108 (not .def_107))) (let ((.def_109 (or .def_108 .def_80))) (let ((.def_110 (not .def_109))) (let ((.def_111 (or .def_110 .def_50))) (let ((.def_112 (and .def_63 .def_0))) (let ((.def_113 (not .def_112))) (let ((.def_114 (not A9))) (let ((.def_115 (or .def_114 .def_51))) (let ((.def_116 (and .def_115 .def_113))) (let ((.def_117 (or .def_9 .def_22))) (let ((.def_118 (not .def_117))) (let ((.def_119 (or .def_63 A4))) (let ((.def_120 (not .def_119))) (let ((.def_121 (= .def_120 .def_118))) (let ((.def_122 (and .def_121 .def_116))) (let ((.def_123 (not .def_122))) (let ((.def_124 (or A7 A20))) (let ((.def_125 (not .def_124))) (let ((.def_126 (or A24 A2))) (let ((.def_127 (not .def_126))) (let ((.def_128 (and .def_127 .def_125))) (let ((.def_129 (not .def_128))) (let ((.def_130 (= .def_39 A19))) (let ((.def_131 (or A22 A16))) (let ((.def_132 (not .def_131))) (let ((.def_133 (or .def_132 .def_130))) (let ((.def_134 (not .def_133))) (let ((.def_135 (and .def_134 .def_129))) (let ((.def_136 (not .def_135))) (let ((.def_137 (or .def_136 .def_123))) (let ((.def_138 (or .def_100 .def_82))) (let ((.def_139 (or A23 A10))) (let ((.def_140 (and .def_139 .def_138))) (let ((.def_141 (and .def_63 .def_21))) (let ((.def_142 (not A17))) (let ((.def_143 (= .def_0 .def_142))) (let ((.def_144 (not .def_143))) (let ((.def_145 (and .def_144 .def_141))) (let ((.def_146 (and .def_145 .def_140))) (let ((.def_147 (or A16 A23))) (let ((.def_148 (not A20))) (let ((.def_149 (and .def_148 A13))) (let ((.def_150 (or .def_149 .def_147))) (let ((.def_151 (or A23 A22))) (let ((.def_152 (not .def_151))) (let ((.def_153 (= A5 A14))) (let ((.def_154 (not .def_153))) (let ((.def_155 (= .def_154 .def_152))) (let ((.def_156 (or .def_155 .def_150))) (let ((.def_157 (not .def_156))) (let ((.def_158 (and .def_157 .def_146))) (let ((.def_159 (not .def_158))) (let ((.def_160 (and .def_159 .def_137))) (let ((.def_161 (= A14 A23))) (let ((.def_162 (and .def_142 A19))) (let ((.def_163 (not .def_162))) (let ((.def_164 (= .def_163 .def_161))) (let ((.def_165 (not A24))) (let ((.def_166 (or .def_22 .def_165))) (let ((.def_167 (not .def_166))) (let ((.def_168 (and A2 .def_114))) (let ((.def_169 (and .def_168 .def_167))) (let ((.def_170 (or .def_169 .def_164))) (let ((.def_171 (and A14 .def_51))) (let ((.def_172 (and A7 A18))) (let ((.def_173 (or .def_172 .def_171))) (let ((.def_174 (= A3 A14))) (let ((.def_175 (not .def_174))) (let ((.def_176 (or .def_69 .def_8))) (let ((.def_177 (or .def_176 .def_175))) (let ((.def_178 (not .def_177))) (let ((.def_179 (= .def_178 .def_173))) (let ((.def_180 (not .def_179))) (let ((.def_181 (or .def_180 .def_170))) (let ((.def_182 (not A23))) (let ((.def_183 (and .def_182 .def_182))) (let ((.def_184 (not .def_183))) (let ((.def_185 (not A13))) (let ((.def_186 (and .def_148 .def_185))) (let ((.def_187 (not .def_186))) (let ((.def_188 (and .def_187 .def_184))) (let ((.def_189 (not .def_188))) (let ((.def_190 (or .def_165 .def_69))) (let ((.def_191 (and .def_186 .def_190))) (let ((.def_192 (not .def_191))) (let ((.def_193 (or .def_192 .def_189))) (let ((.def_194 (not A14))) (let ((.def_195 (or .def_1 .def_194))) (let ((.def_196 (and .def_73 A12))) (let ((.def_197 (= .def_196 .def_195))) (let ((.def_198 (and A11 .def_63))) (let ((.def_199 (not .def_198))) (let ((.def_200 (or .def_194 A13))) (let ((.def_201 (= .def_200 .def_199))) (let ((.def_202 (or .def_201 .def_197))) (let ((.def_203 (not .def_202))) (let ((.def_204 (= .def_203 .def_193))) (let ((.def_205 (not .def_204))) (let ((.def_206 (or .def_205 .def_181))) (let ((.def_207 (not .def_206))) (let ((.def_208 (and .def_207 .def_160))) (let ((.def_209 (not .def_208))) (let ((.def_210 (and .def_209 .def_111))) .def_210))))))))))))))))))))))))))))))))))))))))))))))))))))))))))))))))))))))))))))))))))))))))))))))))))))))))))))))))))))))))))))))))))))))))))))))))))))))))))))))))))))))))))))))))))))))))))))))))))))))))))))))))))))
(check-sat)
